************************************************************************
file with basedata            : j30_34.bas
initial value random generator: 92139869
************************************************************************
projects                      :  1
jobs (incl. supersource/sink ):  32
horizon                       :  167
RESOURCES
  - renewable                 :  4   R
  - nonrenewable              :  0   N
  - doubly constrained        :  0   D
************************************************************************
PROJECT INFORMATION:
pronr.  #jobs rel.date duedate tardcost  MPM-Time
    1     30      0       53       12       53
************************************************************************
PRECEDENCE RELATIONS:
jobnr.    #modes  #successors   successors
   0        1          3           1   2   3
   1        1          3           5   6  15
   2        1          3           7  21  24
   3        1          2           4   7
   4        1          3           9  20  30
   5        1          3          10  11  14
   6        1          2           8  17
   7        1          2          19  22
   8        1          3          12  21  22
   9        1          2          10  13
  10        1          2          12  16
  11        1          2          22  25
  12        1          2          26  27
  13        1          1          23
  14        1          1          17
  15        1          2          18  19
  16        1          3          18  25  26
  17        1          2          19  23
  18        1          1          21
  19        1          2          20  30
  20        1          2          28  29
  21        1          1          27
  22        1          1          30
  23        1          1          24
  24        1          2          25  26
  25        1          2          27  29
  26        1          1          29
  27        1          1          28
  28        1          1          31
  29        1          1          31
  30        1          1          31
  31        1          0        
************************************************************************
REQUESTS/DURATIONS:
jobnr. mode duration  R 1  R 2  R 3  R 4  E(W 1)
------------------------------------------------------------------------
  0      1     0       0    0    0    0     0
  1      1     1       0    4    0    0     4
  2      1    10       4    0    0    0    40
  3      1     5       0    0    5    0    25
  4      1     8       6    0    0    0    48
  5      1     5       0    1    0    0    10
  6      1     9       0    0    0    1    18
  7      1     1       7    0    0    0     7
  8      1     8       1    0    0    0    16
  9      1     8       0    0    6    0    48
 10      1     6       0    0   10    0    60
 11      1     6       0    7    0    0    42
 12      1     6       0    0   10    0    60
 13      1     6       0    0    6    0    36
 14      1     1       1    0    0    0     2
 15      1     6       0    0    0    6    36
 16      1     1       0    0    1    0     2
 17      1     3       8    0    0    0    24
 18      1     7       0    7    0    0    49
 19      1    10      10    0    0    0    100
 20      1     8       0    0    0    2    16
 21      1    10       0    8    0    0    80
 22      1     8       0    0    0    2    16
 23      1     3       0    7    0    0    21
 24      1     3       3    0    0    0     9
 25      1     7       0    0    0    1    14
 26      1     7       1    0    0    0    14
 27      1     3       0    3    0    0     9
 28      1     5       0    0    6    0    30
 29      1     5       0    2    0    0    10
 30      1     1       0    1    0    0     2
 31      1     0       0    0    0    0     0
************************************************************************
RESOURCEAVAILABILITIES:
  R 1
   47
************************************************************************
RESOURCE LIMITS:
jobnr.  l(R 1)  u(R 1)
------------------------------------------------------------------------
  0        0       0
  1        2       4
  2        2       4
  3        3       5
  4        3       6
  5        1       2
  6        1       2
  7        4       7
  8        1       2
  9        3       6
 10        5      10
 11        4       7
 12        5      10
 13        3       6
 14        1       2
 15        3       6
 16        1       2
 17        4       8
 18        4       7
 19        5      10
 20        1       2
 21        4       8
 22        1       2
 23        4       7
 24        2       3
 25        1       2
 26        1       2
 27        2       3
 28        3       6
 29        1       2
 30        1       2
 31        0       0
************************************************************************
SCENARIOS:
------------------------------------------------------------------------
RESOURCE k = 1
s = 1: (0, 4, 33, 21, 51, 19, 20, 6, 16, 39, 69, 54, 48, 30, 2, 33, 3, 18, 61, 89, 24, 67, 14, 20, 9, 14, 17, 11, 34, 7, 2, 0)
s = 2: (0, 5, 46, 23, 36, 6, 14, 9, 16, 55, 51, 31, 46, 41, 2, 29, 2, 20, 34, 114, 18, 103, 16, 11, 12, 16, 15, 9, 28, 15, 3, 0)
s = 3: (0, 4, 43, 23, 47, 8, 17, 6, 15, 31, 44, 58, 88, 45, 2, 27, 3, 32, 85, 102, 14, 85, 12, 21, 7, 16, 14, 8, 20, 12, 3, 0)
s = 4: (0, 8, 50, 22, 49, 16, 15, 6, 25, 69, 41, 45, 57, 27, 3, 31, 4, 19, 38, 100, 23, 57, 27, 15, 9, 21, 17, 10, 33, 8, 2, 0)
s = 5: (0, 6, 59, 14, 85, 6, 16, 11, 12, 59, 74, 41, 71, 35, 3, 39, 2, 20, 39, 138, 14, 71, 21, 14, 8, 21, 9, 7, 28, 8, 2, 0)
s = 6: (0, 3, 24, 28, 29, 7, 14, 10, 19, 51, 94, 32, 96, 42, 4, 40, 2, 20, 68, 155, 17, 49, 10, 24, 8, 13, 16, 14, 28, 12, 2, 0)
s = 7: (0, 5, 36, 26, 56, 8, 17, 8, 15, 78, 54, 37, 115, 31, 4, 37, 3, 24, 54, 62, 22, 96, 13, 12, 7, 16, 12, 8, 18, 11, 2, 0)
s = 8: (0, 4, 51, 17, 40, 10, 26, 5, 13, 61, 64, 34, 94, 26, 2, 29, 3, 21, 27, 102, 21, 56, 10, 20, 12, 12, 12, 13, 31, 16, 2, 0)
s = 9: (0, 4, 43, 26, 60, 6, 15, 5, 13, 51, 70, 68, 69, 27, 2, 31, 3, 16, 71, 87, 14, 87, 12, 22, 6, 15, 15, 9, 21, 18, 3, 0)
s = 10: (0, 4, 65, 31, 67, 8, 13, 5, 13, 70, 42, 52, 87, 40, 2, 42, 2, 23, 54, 184, 24, 74, 15, 18, 10, 15, 17, 12, 20, 9, 3, 0)
s = 11: (0, 3, 23, 29, 47, 8, 11, 8, 24, 40, 63, 62, 64, 30, 2, 38, 3, 32, 45, 134, 18, 82, 18, 28, 12, 19, 14, 7, 17, 9, 2, 0)
s = 12: (0, 4, 28, 33, 62, 12, 17, 6, 12, 65, 61, 24, 38, 53, 2, 33, 2, 16, 51, 118, 15, 72, 9, 23, 8, 21, 16, 13, 25, 13, 2, 0)
s = 13: (0, 5, 50, 22, 41, 10, 21, 6, 20, 42, 51, 34, 88, 27, 2, 30, 3, 33, 45, 72, 13, 92, 16, 19, 8, 15, 9, 11, 22, 15, 3, 0)
s = 14: (0, 3, 33, 30, 42, 14, 23, 8, 12, 34, 37, 32, 91, 30, 3, 42, 3, 21, 41, 75, 18, 41, 21, 26, 10, 9, 22, 14, 21, 8, 3, 0)
s = 15: (0, 3, 41, 35, 43, 12, 19, 8, 13, 44, 38, 45, 52, 35, 3, 42, 2, 27, 53, 83, 18, 105, 15, 16, 7, 11, 11, 6, 26, 7, 4, 0)
s = 16: (0, 3, 32, 24, 40, 10, 17, 6, 20, 39, 62, 39, 62, 32, 3, 48, 3, 27, 29, 105, 19, 79, 18, 18, 7, 16, 17, 7, 31, 8, 2, 0)
s = 17: (0, 5, 41, 23, 84, 13, 27, 9, 25, 53, 44, 57, 36, 46, 2, 26, 3, 19, 49, 73, 25, 92, 16, 26, 7, 15, 16, 7, 33, 7, 2, 0)
s = 18: (0, 7, 36, 26, 62, 20, 18, 9, 10, 73, 73, 35, 63, 29, 3, 44, 3, 19, 42, 153, 14, 54, 18, 17, 13, 12, 16, 7, 41, 14, 2, 0)
s = 19: (0, 6, 33, 15, 35, 11, 27, 10, 18, 45, 46, 66, 73, 33, 3, 26, 3, 29, 63, 85, 10, 90, 20, 28, 6, 11, 14, 10, 19, 15, 3, 0)
s = 20: (0, 4, 38, 24, 52, 9, 18, 6, 19, 45, 67, 57, 54, 41, 3, 46, 2, 14, 46, 138, 11, 71, 18, 31, 8, 18, 15, 9, 45, 13, 3, 0)
s = 21: (0, 4, 29, 28, 55, 8, 23, 10, 11, 37, 70, 37, 86, 42, 2, 32, 3, 23, 62, 99, 12, 69, 17, 27, 9, 12, 20, 6, 42, 11, 3, 0)
s = 22: (0, 4, 36, 28, 41, 7, 15, 8, 11, 59, 52, 41, 57, 46, 3, 24, 3, 30, 53, 66, 14, 65, 16, 14, 13, 13, 16, 8, 24, 10, 2, 0)
s = 23: (0, 4, 52, 24, 55, 9, 20, 7, 10, 77, 34, 39, 75, 24, 2, 44, 3, 28, 36, 107, 21, 119, 12, 18, 7, 14, 24, 13, 46, 9, 2, 0)
s = 24: (0, 3, 38, 24, 81, 7, 19, 9, 21, 28, 80, 67, 51, 43, 3, 28, 2, 22, 80, 75, 19, 64, 25, 16, 11, 16, 8, 8, 43, 8, 4, 0)
s = 25: (0, 3, 34, 26, 70, 11, 19, 6, 22, 42, 48, 62, 56, 32, 2, 54, 3, 23, 49, 146, 20, 63, 18, 19, 8, 18, 19, 12, 26, 7, 3, 0)
s = 26: (0, 4, 42, 31, 32, 10, 14, 9, 20, 38, 99, 28, 65, 44, 2, 59, 4, 26, 46, 115, 16, 57, 21, 28, 10, 14, 20, 12, 36, 11, 3, 0)
s = 27: (0, 4, 58, 44, 49, 8, 22, 7, 15, 28, 42, 38, 97, 34, 3, 45, 3, 23, 45, 108, 11, 65, 20, 18, 8, 10, 9, 13, 26, 9, 2, 0)
s = 28: (0, 8, 60, 23, 26, 7, 23, 9, 22, 56, 32, 34, 64, 22, 2, 33, 2, 31, 44, 158, 18, 57, 10, 17, 6, 10, 24, 9, 22, 10, 3, 0)
s = 29: (0, 5, 25, 25, 39, 9, 10, 7, 15, 64, 44, 52, 32, 35, 4, 44, 2, 20, 44, 66, 23, 117, 12, 21, 12, 14, 14, 6, 25, 14, 3, 0)
s = 30: (0, 4, 25, 22, 69, 10, 23, 7, 16, 50, 51, 43, 68, 20, 2, 30, 2, 16, 35, 105, 15, 103, 14, 26, 6, 12, 13, 12, 33, 8, 3, 0)
s = 31: (0, 6, 23, 26, 41, 9, 19, 6, 16, 50, 60, 51, 64, 45, 2, 33, 2, 17, 28, 107, 10, 71, 10, 19, 8, 12, 18, 11, 41, 14, 3, 0)
s = 32: (0, 3, 31, 29, 70, 12, 15, 6, 14, 50, 41, 40, 59, 39, 2, 32, 2, 20, 28, 156, 12, 64, 15, 18, 9, 12, 19, 11, 40, 14, 3, 0)
s = 33: (0, 4, 33, 38, 37, 9, 24, 7, 22, 80, 59, 31, 44, 40, 2, 31, 2, 18, 36, 69, 13, 121, 17, 29, 12, 13, 16, 8, 29, 9, 2, 0)
s = 34: (0, 4, 55, 40, 33, 10, 15, 4, 18, 68, 51, 30, 75, 41, 3, 44, 3, 34, 81, 85, 10, 55, 12, 19, 7, 10, 14, 7, 30, 9, 2, 0)
s = 35: (0, 3, 51, 16, 76, 9, 13, 9, 17, 64, 47, 32, 32, 47, 2, 32, 3, 25, 72, 129, 10, 122, 16, 36, 8, 9, 9, 6, 38, 11, 3, 0)
s = 36: (0, 3, 53, 16, 46, 15, 23, 6, 29, 75, 48, 34, 85, 50, 2, 29, 2, 24, 49, 67, 16, 75, 18, 22, 6, 20, 14, 10, 29, 7, 2, 0)
s = 37: (0, 3, 37, 22, 53, 12, 21, 7, 25, 50, 69, 49, 63, 34, 3, 34, 3, 21, 42, 141, 20, 68, 18, 15, 14, 21, 12, 7, 30, 9, 3, 0)
s = 38: (0, 4, 43, 19, 31, 17, 14, 9, 15, 44, 72, 53, 68, 29, 2, 30, 2, 18, 42, 117, 20, 65, 11, 19, 14, 12, 20, 12, 30, 10, 2, 0)
s = 39: (0, 4, 44, 20, 53, 12, 18, 9, 20, 38, 45, 29, 50, 31, 2, 56, 2, 14, 81, 108, 22, 70, 12, 20, 7, 13, 9, 10, 22, 9, 3, 0)
s = 40: (0, 4, 23, 40, 40, 14, 20, 10, 12, 57, 67, 36, 57, 32, 2, 27, 2, 33, 64, 160, 17, 74, 10, 28, 6, 14, 13, 10, 24, 12, 2, 0)
s = 41: (0, 3, 49, 30, 42, 10, 16, 8, 11, 56, 36, 35, 66, 47, 2, 28, 2, 20, 63, 67, 16, 76, 22, 24, 9, 14, 13, 9, 23, 11, 3, 0)
s = 42: (0, 4, 41, 21, 41, 8, 31, 10, 14, 41, 57, 41, 52, 26, 2, 62, 2, 30, 41, 58, 18, 64, 26, 14, 6, 13, 14, 7, 21, 8, 3, 0)
s = 43: (0, 5, 39, 26, 74, 12, 18, 5, 18, 79, 59, 28, 63, 32, 2, 44, 3, 25, 37, 101, 24, 110, 22, 24, 9, 17, 15, 13, 21, 11, 2, 0)
s = 44: (0, 4, 58, 27, 93, 11, 20, 7, 19, 51, 49, 30, 56, 33, 3, 42, 3, 26, 64, 85, 15, 83, 16, 23, 11, 15, 12, 5, 35, 10, 3, 0)
s = 45: (0, 3, 44, 27, 66, 12, 10, 9, 18, 29, 60, 35, 68, 49, 3, 25, 2, 22, 71, 95, 14, 73, 13, 17, 7, 18, 18, 7, 34, 10, 2, 0)
s = 46: (0, 5, 32, 20, 55, 8, 21, 4, 14, 45, 43, 62, 71, 24, 2, 38, 3, 25, 62, 68, 13, 75, 15, 23, 8, 10, 17, 9, 20, 10, 3, 0)
s = 47: (0, 5, 32, 23, 39, 12, 19, 8, 17, 28, 83, 32, 79, 23, 3, 37, 2, 32, 54, 60, 21, 102, 15, 27, 10, 10, 16, 7, 37, 10, 4, 0)
s = 48: (0, 4, 32, 29, 58, 14, 19, 9, 14, 58, 50, 63, 36, 47, 2, 51, 3, 16, 39, 94, 12, 66, 16, 13, 7, 15, 11, 10, 36, 17, 2, 0)
s = 49: (0, 4, 36, 25, 36, 11, 22, 6, 12, 66, 41, 30, 76, 20, 2, 29, 2, 29, 38, 132, 19, 73, 16, 16, 7, 14, 16, 12, 38, 7, 3, 0)
s = 50: (0, 3, 40, 39, 37, 14, 19, 7, 15, 45, 50, 61, 70, 29, 2, 46, 3, 20, 73, 103, 18, 122, 21, 25, 10, 17, 19, 11, 19, 10, 3, 0)
s = 51: (0, 3, 27, 44, 39, 10, 19, 8, 19, 53, 65, 60, 45, 26, 3, 62, 2, 22, 81, 179, 13, 68, 29, 24, 13, 14, 14, 10, 21, 6, 2, 0)
s = 52: (0, 3, 48, 36, 63, 14, 19, 12, 12, 42, 46, 24, 83, 30, 3, 32, 2, 29, 51, 89, 21, 110, 18, 18, 6, 17, 18, 11, 25, 11, 2, 0)
s = 53: (0, 5, 50, 29, 40, 9, 18, 7, 21, 45, 47, 29, 77, 38, 2, 40, 2, 14, 40, 79, 29, 106, 16, 24, 10, 14, 8, 9, 18, 8, 3, 0)
s = 54: (0, 5, 42, 39, 35, 13, 14, 9, 15, 30, 108, 47, 38, 57, 2, 40, 3, 26, 54, 111, 23, 60, 18, 27, 11, 9, 9, 16, 34, 7, 3, 0)
s = 55: (0, 4, 35, 27, 61, 8, 12, 6, 24, 50, 42, 38, 56, 39, 2, 41, 4, 26, 34, 94, 9, 105, 15, 19, 7, 16, 12, 10, 25, 10, 3, 0)
s = 56: (0, 3, 42, 34, 32, 10, 20, 8, 13, 49, 54, 34, 43, 38, 3, 33, 3, 20, 40, 108, 16, 76, 23, 20, 9, 14, 13, 8, 36, 13, 3, 0)
s = 57: (0, 5, 53, 22, 38, 9, 15, 8, 27, 34, 60, 32, 61, 23, 3, 33, 2, 24, 48, 131, 16, 81, 21, 20, 9, 14, 16, 8, 22, 6, 3, 0)
s = 58: (0, 3, 37, 19, 42, 11, 14, 9, 20, 58, 57, 49, 52, 44, 2, 47, 2, 32, 77, 79, 10, 49, 12, 23, 7, 11, 15, 6, 26, 10, 3, 0)
s = 59: (0, 3, 60, 19, 73, 14, 14, 7, 16, 44, 79, 44, 55, 45, 2, 24, 2, 17, 52, 135, 17, 62, 20, 16, 11, 10, 22, 16, 27, 7, 3, 0)
s = 60: (0, 3, 29, 21, 33, 9, 19, 6, 13, 35, 43, 57, 38, 28, 2, 29, 2, 13, 43, 130, 12, 58, 19, 16, 7, 9, 19, 11, 28, 9, 3, 0)
s = 61: (0, 4, 25, 34, 63, 11, 21, 7, 15, 45, 60, 56, 45, 38, 2, 25, 2, 23, 59, 86, 10, 74, 16, 22, 7, 12, 21, 16, 31, 9, 3, 0)
s = 62: (0, 4, 51, 24, 30, 11, 14, 11, 18, 53, 38, 42, 55, 43, 2, 23, 3, 18, 47, 99, 28, 67, 17, 14, 10, 14, 13, 9, 32, 8, 2, 0)
s = 63: (0, 6, 34, 27, 66, 12, 18, 11, 19, 41, 58, 46, 41, 33, 2, 27, 2, 31, 30, 112, 17, 48, 14, 23, 11, 16, 14, 13, 50, 8, 3, 0)
s = 64: (0, 4, 54, 18, 26, 10, 16, 9, 25, 52, 76, 31, 83, 38, 3, 39, 3, 18, 48, 85, 11, 99, 23, 14, 8, 17, 13, 8, 22, 16, 3, 0)
s = 65: (0, 7, 33, 28, 54, 13, 16, 9, 13, 67, 42, 45, 33, 37, 2, 33, 2, 17, 50, 71, 19, 50, 13, 28, 13, 13, 22, 12, 19, 12, 3, 0)
s = 66: (0, 3, 54, 18, 26, 15, 15, 9, 13, 38, 56, 37, 62, 47, 2, 22, 2, 21, 32, 96, 12, 89, 17, 18, 11, 16, 15, 8, 30, 7, 3, 0)
s = 67: (0, 3, 35, 40, 58, 10, 17, 10, 12, 30, 53, 40, 48, 40, 3, 34, 2, 20, 62, 113, 10, 98, 22, 22, 8, 12, 17, 12, 27, 16, 3, 0)
s = 68: (0, 5, 41, 31, 79, 7, 11, 4, 9, 54, 76, 35, 54, 21, 3, 40, 2, 17, 26, 116, 14, 87, 17, 24, 9, 17, 13, 12, 18, 14, 3, 0)
s = 69: (0, 4, 48, 28, 69, 9, 22, 5, 17, 50, 47, 24, 88, 37, 2, 35, 2, 20, 46, 109, 15, 77, 21, 18, 8, 11, 14, 11, 40, 13, 2, 0)
s = 70: (0, 6, 25, 28, 36, 11, 22, 9, 29, 46, 78, 45, 38, 36, 2, 41, 3, 19, 42, 148, 14, 65, 11, 20, 16, 9, 15, 5, 19, 13, 3, 0)
s = 71: (0, 4, 60, 36, 38, 8, 17, 6, 15, 57, 59, 53, 70, 26, 2, 35, 3, 25, 72, 133, 14, 90, 26, 16, 5, 17, 9, 9, 19, 9, 3, 0)
s = 72: (0, 3, 27, 30, 39, 6, 14, 6, 23, 39, 86, 65, 63, 41, 2, 36, 2, 16, 32, 96, 20, 53, 16, 24, 7, 14, 14, 7, 26, 6, 2, 0)
s = 73: (0, 4, 27, 30, 31, 7, 20, 8, 27, 70, 68, 26, 85, 35, 2, 61, 2, 25, 38, 149, 12, 78, 11, 23, 9, 12, 14, 11, 44, 9, 4, 0)
s = 74: (0, 5, 61, 30, 45, 15, 16, 7, 12, 31, 59, 57, 66, 35, 3, 35, 3, 26, 31, 92, 19, 54, 20, 25, 10, 13, 10, 10, 25, 6, 3, 0)
s = 75: (0, 4, 25, 33, 51, 12, 14, 9, 15, 47, 55, 33, 81, 68, 2, 57, 2, 25, 56, 59, 10, 71, 11, 24, 6, 17, 16, 12, 31, 7, 3, 0)
s = 76: (0, 5, 23, 15, 32, 10, 20, 9, 14, 77, 32, 37, 86, 31, 3, 47, 3, 24, 38, 157, 12, 75, 18, 19, 9, 12, 8, 10, 19, 8, 2, 0)
s = 77: (0, 4, 44, 17, 65, 6, 13, 6, 25, 62, 76, 47, 64, 51, 2, 66, 2, 21, 35, 93, 18, 83, 16, 14, 11, 10, 9, 6, 39, 15, 2, 0)
s = 78: (0, 6, 26, 22, 63, 9, 19, 6, 22, 60, 51, 42, 45, 30, 2, 36, 3, 16, 40, 91, 17, 84, 21, 15, 10, 11, 25, 9, 42, 8, 2, 0)
s = 79: (0, 5, 51, 21, 34, 17, 20, 8, 13, 81, 58, 51, 58, 37, 2, 37, 3, 31, 66, 73, 30, 47, 19, 24, 7, 15, 17, 7, 38, 8, 3, 0)
s = 80: (0, 4, 28, 22, 35, 7, 18, 7, 16, 48, 54, 35, 61, 33, 3, 30, 2, 29, 38, 65, 16, 94, 14, 24, 7, 10, 10, 9, 31, 12, 4, 0)
s = 81: (0, 4, 43, 19, 29, 12, 21, 8, 19, 47, 71, 40, 46, 38, 2, 63, 2, 32, 43, 90, 20, 89, 10, 31, 10, 11, 15, 11, 35, 9, 3, 0)
s = 82: (0, 4, 35, 27, 30, 7, 22, 8, 19, 37, 81, 46, 45, 26, 3, 47, 3, 25, 42, 126, 11, 56, 19, 24, 14, 23, 17, 9, 25, 9, 3, 0)
s = 83: (0, 6, 27, 20, 63, 8, 15, 6, 17, 40, 51, 59, 63, 47, 2, 30, 3, 21, 82, 149, 10, 63, 19, 17, 7, 15, 9, 8, 37, 15, 3, 0)
s = 84: (0, 3, 60, 35, 65, 8, 15, 6, 10, 52, 62, 49, 69, 42, 2, 26, 2, 23, 39, 128, 20, 75, 15, 14, 14, 10, 14, 7, 36, 11, 2, 0)
s = 85: (0, 6, 35, 16, 50, 12, 22, 6, 14, 69, 74, 43, 44, 51, 3, 34, 3, 19, 57, 96, 19, 95, 12, 27, 15, 12, 17, 9, 48, 9, 2, 0)
s = 86: (0, 6, 37, 21, 41, 9, 11, 7, 26, 34, 52, 47, 57, 54, 3, 50, 3, 26, 64, 111, 10, 85, 18, 25, 14, 8, 12, 8, 23, 19, 2, 0)
s = 87: (0, 5, 38, 30, 29, 9, 19, 7, 15, 72, 93, 48, 80, 21, 2, 44, 2, 23, 55, 106, 14, 75, 13, 24, 12, 10, 18, 7, 27, 13, 2, 0)
s = 88: (0, 6, 29, 26, 39, 16, 19, 5, 14, 30, 51, 39, 49, 37, 3, 36, 2, 28, 36, 152, 11, 77, 16, 12, 10, 11, 15, 9, 21, 9, 3, 0)
s = 89: (0, 5, 29, 26, 43, 13, 15, 8, 11, 65, 82, 38, 54, 44, 3, 68, 2, 15, 50, 99, 20, 125, 19, 15, 11, 14, 13, 5, 44, 9, 3, 0)
s = 90: (0, 8, 43, 21, 38, 12, 25, 5, 18, 43, 61, 44, 75, 44, 3, 31, 2, 34, 33, 95, 18, 55, 25, 33, 13, 19, 12, 15, 37, 14, 3, 0)
s = 91: (0, 3, 35, 15, 37, 9, 18, 5, 16, 35, 77, 32, 67, 38, 3, 47, 2, 27, 51, 125, 24, 88, 21, 18, 14, 14, 10, 11, 30, 12, 2, 0)
s = 92: (0, 4, 30, 24, 47, 12, 16, 10, 20, 73, 39, 57, 49, 41, 2, 44, 2, 26, 63, 124, 18, 72, 16, 16, 6, 15, 11, 8, 24, 16, 3, 0)
s = 93: (0, 5, 33, 29, 65, 11, 14, 6, 16, 45, 43, 35, 54, 35, 2, 31, 4, 23, 45, 149, 18, 66, 15, 21, 16, 9, 19, 10, 23, 14, 4, 0)
s = 94: (0, 4, 56, 25, 77, 16, 15, 6, 14, 56, 82, 61, 83, 27, 2, 27, 2, 27, 37, 63, 17, 85, 21, 26, 10, 14, 9, 10, 41, 11, 4, 0)
s = 95: (0, 8, 30, 21, 45, 13, 24, 9, 18, 55, 52, 45, 34, 25, 2, 51, 3, 22, 47, 83, 13, 95, 20, 23, 14, 17, 12, 11, 30, 8, 3, 0)
s = 96: (0, 3, 28, 32, 34, 7, 11, 6, 28, 33, 56, 36, 62, 29, 2, 23, 2, 23, 62, 134, 14, 89, 11, 19, 13, 13, 10, 7, 27, 11, 3, 0)
s = 97: (0, 4, 33, 36, 43, 12, 21, 8, 18, 48, 49, 34, 73, 30, 3, 33, 3, 28, 40, 71, 17, 83, 15, 20, 11, 17, 13, 7, 31, 10, 2, 0)
s = 98: (0, 7, 32, 20, 38, 13, 19, 6, 17, 62, 82, 39, 50, 22, 3, 33, 3, 23, 52, 70, 23, 63, 14, 28, 7, 17, 17, 7, 22, 9, 2, 0)
s = 99: (0, 4, 29, 26, 56, 12, 24, 9, 23, 64, 52, 35, 38, 41, 3, 29, 3, 26, 43, 112, 21, 75, 11, 21, 8, 20, 16, 13, 16, 11, 3, 0)
s = 100: (0, 4, 26, 24, 31, 11, 24, 7, 25, 60, 78, 49, 41, 33, 3, 25, 2, 29, 44, 92, 14, 69, 13, 13, 9, 12, 11, 9, 21, 9, 3, 0)
s = 101: (0, 3, 39, 20, 53, 9, 13, 8, 17, 41, 34, 55, 45, 44, 3, 32, 2, 18, 43, 167, 15, 76, 16, 26, 11, 13, 15, 14, 23, 11, 2, 0)
s = 102: (0, 3, 31, 19, 31, 11, 21, 11, 17, 37, 96, 42, 47, 45, 3, 51, 2, 25, 58, 134, 18, 87, 20, 20, 11, 9, 15, 14, 46, 7, 3, 0)
s = 103: (0, 5, 63, 28, 56, 16, 12, 7, 17, 50, 63, 35, 47, 23, 2, 46, 2, 18, 35, 62, 11, 91, 11, 33, 8, 18, 12, 10, 48, 9, 2, 0)
s = 104: (0, 4, 43, 13, 60, 6, 28, 6, 9, 49, 43, 45, 34, 25, 3, 34, 3, 37, 73, 63, 11, 101, 17, 12, 12, 13, 8, 7, 32, 12, 2, 0)
s = 105: (0, 5, 38, 36, 58, 12, 23, 5, 16, 66, 57, 53, 49, 24, 2, 36, 4, 28, 52, 115, 17, 83, 13, 15, 8, 9, 8, 9, 19, 12, 4, 0)
s = 106: (0, 3, 32, 43, 47, 6, 18, 8, 15, 42, 61, 35, 88, 40, 2, 26, 2, 28, 39, 63, 10, 123, 15, 20, 18, 8, 17, 9, 44, 8, 2, 0)
s = 107: (0, 5, 46, 26, 37, 6, 12, 7, 15, 28, 59, 36, 58, 38, 3, 46, 2, 28, 58, 84, 17, 67, 18, 11, 11, 12, 8, 17, 47, 10, 2, 0)
s = 108: (0, 5, 55, 31, 52, 16, 13, 8, 24, 27, 53, 53, 64, 35, 3, 31, 3, 28, 47, 112, 27, 63, 20, 22, 9, 9, 19, 9, 34, 13, 3, 0)
s = 109: (0, 4, 27, 24, 62, 12, 23, 8, 22, 56, 46, 43, 62, 28, 3, 54, 3, 28, 36, 117, 21, 62, 13, 15, 14, 15, 14, 11, 35, 14, 2, 0)
s = 110: (0, 6, 36, 18, 46, 7, 16, 7, 19, 47, 57, 44, 48, 22, 2, 63, 3, 19, 50, 60, 17, 94, 16, 18, 7, 14, 10, 12, 28, 13, 2, 0)
s = 111: (0, 4, 35, 21, 35, 9, 24, 8, 12, 41, 44, 53, 80, 33, 3, 40, 3, 35, 64, 123, 27, 145, 17, 19, 10, 21, 12, 10, 36, 10, 3, 0)
s = 112: (0, 4, 43, 18, 36, 12, 21, 9, 18, 87, 58, 52, 60, 33, 2, 28, 3, 26, 31, 79, 14, 99, 23, 15, 6, 14, 15, 14, 19, 11, 4, 0)
s = 113: (0, 4, 52, 22, 38, 6, 29, 5, 16, 35, 98, 60, 65, 41, 2, 29, 2, 29, 36, 110, 14, 63, 24, 31, 8, 23, 19, 8, 25, 13, 2, 0)
s = 114: (0, 8, 26, 23, 40, 11, 17, 8, 18, 29, 49, 35, 94, 41, 3, 46, 3, 18, 40, 175, 20, 75, 17, 20, 7, 16, 13, 9, 18, 14, 3, 0)
s = 115: (0, 8, 48, 23, 75, 11, 21, 6, 19, 37, 51, 47, 120, 42, 3, 36, 3, 30, 46, 129, 17, 77, 10, 20, 14, 14, 15, 15, 37, 11, 2, 0)
s = 116: (0, 5, 31, 26, 34, 12, 16, 5, 34, 43, 61, 26, 49, 36, 3, 23, 2, 28, 43, 77, 15, 52, 22, 15, 11, 13, 13, 12, 48, 8, 3, 0)
s = 117: (0, 3, 36, 20, 51, 9, 23, 10, 9, 60, 84, 61, 81, 20, 2, 28, 3, 33, 57, 62, 24, 63, 27, 32, 6, 14, 13, 9, 40, 9, 3, 0)
s = 118: (0, 7, 30, 20, 62, 10, 14, 7, 11, 61, 43, 51, 89, 35, 3, 28, 3, 18, 50, 127, 9, 53, 18, 16, 10, 17, 15, 8, 32, 13, 2, 0)
s = 119: (0, 3, 44, 25, 55, 12, 23, 7, 11, 57, 82, 42, 56, 50, 3, 38, 2, 27, 50, 147, 18, 64, 13, 17, 13, 9, 8, 11, 41, 11, 3, 0)
s = 120: (0, 6, 54, 22, 44, 13, 12, 8, 13, 47, 73, 49, 37, 40, 3, 56, 3, 40, 41, 71, 14, 93, 15, 14, 11, 15, 9, 9, 29, 13, 2, 0)
s = 121: (0, 3, 46, 35, 31, 7, 16, 8, 15, 37, 43, 48, 31, 50, 3, 45, 2, 34, 44, 90, 20, 77, 12, 17, 12, 19, 22, 14, 32, 10, 3, 0)
s = 122: (0, 6, 62, 21, 68, 11, 14, 7, 16, 36, 69, 36, 39, 35, 4, 21, 3, 23, 50, 129, 21, 87, 17, 24, 11, 11, 15, 14, 36, 8, 3, 0)
s = 123: (0, 5, 48, 20, 46, 7, 17, 8, 13, 49, 77, 31, 42, 20, 2, 29, 3, 27, 73, 65, 19, 86, 13, 23, 13, 14, 13, 8, 45, 14, 3, 0)
s = 124: (0, 3, 42, 35, 70, 7, 22, 5, 14, 52, 69, 39, 88, 33, 2, 45, 2, 32, 44, 68, 13, 101, 12, 14, 15, 14, 11, 13, 22, 10, 4, 0)
s = 125: (0, 4, 23, 33, 51, 11, 18, 9, 12, 33, 66, 28, 62, 50, 4, 26, 2, 31, 62, 101, 22, 89, 27, 20, 16, 17, 15, 8, 24, 8, 2, 0)
s = 126: (0, 4, 33, 37, 70, 11, 24, 8, 14, 45, 83, 50, 55, 33, 3, 28, 4, 22, 40, 88, 17, 95, 15, 11, 10, 19, 9, 12, 31, 7, 3, 0)
s = 127: (0, 4, 34, 21, 67, 7, 20, 6, 14, 38, 98, 28, 39, 29, 3, 47, 2, 40, 43, 86, 11, 72, 12, 24, 9, 12, 21, 12, 37, 13, 2, 0)
s = 128: (0, 3, 65, 28, 30, 14, 10, 8, 14, 37, 37, 48, 69, 43, 3, 40, 2, 17, 36, 158, 16, 81, 14, 27, 11, 14, 10, 7, 33, 11, 2, 0)
s = 129: (0, 5, 30, 23, 36, 9, 18, 9, 24, 41, 47, 32, 58, 52, 2, 28, 2, 22, 59, 84, 18, 108, 12, 24, 7, 19, 18, 9, 20, 7, 2, 0)
s = 130: (0, 4, 50, 26, 70, 13, 14, 9, 12, 60, 86, 28, 73, 44, 2, 24, 3, 16, 47, 115, 21, 94, 21, 18, 7, 15, 14, 9, 30, 11, 2, 0)
s = 131: (0, 6, 67, 22, 68, 7, 14, 10, 14, 62, 34, 37, 81, 35, 2, 43, 2, 34, 51, 130, 9, 50, 9, 17, 7, 19, 18, 6, 35, 12, 3, 0)
s = 132: (0, 6, 65, 22, 41, 8, 12, 10, 21, 41, 87, 50, 33, 35, 2, 27, 2, 20, 31, 83, 16, 51, 21, 22, 8, 10, 10, 10, 37, 8, 2, 0)
s = 133: (0, 5, 31, 30, 41, 12, 13, 12, 16, 56, 36, 29, 34, 34, 3, 27, 2, 14, 41, 105, 22, 103, 19, 15, 7, 9, 15, 7, 38, 11, 2, 0)
s = 134: (0, 5, 32, 16, 59, 16, 15, 9, 22, 63, 50, 26, 54, 36, 3, 48, 3, 28, 64, 66, 18, 90, 23, 20, 8, 14, 13, 6, 34, 11, 3, 0)
s = 135: (0, 4, 51, 19, 53, 10, 12, 9, 19, 81, 53, 65, 68, 34, 2, 42, 2, 35, 44, 153, 14, 87, 17, 13, 7, 17, 13, 10, 37, 12, 2, 0)
s = 136: (0, 3, 57, 20, 50, 14, 26, 8, 19, 76, 45, 54, 45, 70, 2, 22, 3, 31, 53, 120, 15, 49, 13, 15, 8, 11, 14, 8, 27, 16, 3, 0)
s = 137: (0, 3, 44, 25, 50, 7, 22, 6, 15, 57, 48, 31, 77, 41, 2, 25, 2, 35, 77, 68, 18, 100, 15, 20, 9, 21, 15, 15, 29, 7, 2, 0)
s = 138: (0, 4, 49, 21, 33, 9, 18, 11, 15, 65, 56, 45, 45, 22, 2, 28, 3, 33, 32, 72, 12, 79, 11, 32, 7, 21, 15, 13, 30, 8, 2, 0)
s = 139: (0, 4, 35, 27, 36, 8, 20, 6, 13, 34, 62, 42, 63, 41, 2, 29, 2, 35, 42, 93, 11, 75, 21, 18, 6, 13, 16, 8, 26, 9, 2, 0)
s = 140: (0, 4, 30, 21, 78, 19, 13, 5, 17, 56, 89, 31, 49, 21, 3, 37, 4, 31, 32, 118, 9, 56, 13, 21, 12, 17, 13, 7, 32, 13, 2, 0)
s = 141: (0, 3, 29, 23, 52, 10, 23, 6, 10, 48, 52, 43, 58, 33, 2, 28, 4, 38, 36, 101, 17, 68, 19, 18, 9, 20, 12, 10, 42, 14, 2, 0)
s = 142: (0, 5, 28, 27, 66, 11, 13, 6, 24, 54, 63, 32, 57, 36, 3, 28, 3, 22, 42, 120, 25, 80, 15, 18, 12, 12, 16, 12, 23, 16, 3, 0)
s = 143: (0, 4, 40, 28, 39, 17, 23, 13, 19, 51, 53, 63, 59, 61, 3, 41, 2, 21, 46, 90, 18, 69, 18, 23, 8, 12, 16, 6, 19, 12, 3, 0)
s = 144: (0, 6, 32, 16, 44, 11, 16, 5, 13, 54, 93, 30, 49, 31, 2, 46, 2, 22, 66, 134, 18, 68, 14, 28, 9, 15, 9, 13, 34, 10, 3, 0)
s = 145: (0, 5, 35, 19, 70, 12, 11, 10, 20, 69, 40, 41, 77, 33, 3, 26, 3, 40, 73, 67, 13, 84, 27, 17, 8, 12, 13, 9, 24, 8, 2, 0)
s = 146: (0, 3, 36, 22, 69, 12, 17, 9, 9, 41, 78, 41, 50, 34, 3, 49, 3, 28, 76, 141, 14, 114, 11, 15, 7, 17, 8, 10, 23, 9, 2, 0)
s = 147: (0, 6, 38, 25, 59, 12, 15, 10, 11, 59, 40, 31, 72, 51, 2, 42, 2, 30, 51, 107, 16, 65, 18, 22, 14, 17, 19, 13, 18, 10, 3, 0)
s = 148: (0, 4, 37, 28, 45, 17, 22, 5, 24, 53, 85, 50, 47, 63, 2, 31, 4, 22, 40, 93, 16, 54, 16, 19, 10, 21, 12, 11, 25, 10, 2, 0)
s = 149: (0, 4, 25, 19, 56, 7, 10, 7, 9, 61, 62, 41, 51, 34, 2, 39, 2, 15, 30, 91, 12, 57, 20, 12, 10, 11, 14, 10, 19, 9, 2, 0)
s = 150: (0, 5, 27, 19, 62, 8, 11, 6, 20, 57, 60, 44, 63, 34, 2, 31, 2, 17, 33, 93, 14, 108, 16, 15, 9, 10, 15, 9, 27, 10, 2, 0)
s = 151: (0, 3, 39, 27, 35, 8, 15, 7, 23, 80, 55, 57, 42, 24, 3, 32, 3, 19, 38, 115, 19, 81, 12, 28, 14, 13, 10, 9, 29, 12, 3, 0)
s = 152: (0, 6, 41, 17, 35, 8, 14, 12, 14, 42, 39, 39, 78, 23, 3, 38, 2, 17, 56, 100, 19, 117, 12, 16, 5, 16, 26, 16, 35, 7, 2, 0)
s = 153: (0, 4, 26, 21, 47, 14, 24, 11, 27, 67, 53, 48, 38, 23, 2, 49, 3, 26, 47, 150, 16, 60, 13, 15, 6, 17, 14, 11, 28, 8, 3, 0)
s = 154: (0, 5, 22, 31, 55, 14, 11, 7, 19, 32, 64, 40, 107, 36, 3, 35, 2, 39, 29, 108, 17, 97, 14, 22, 12, 9, 19, 14, 23, 12, 2, 0)
s = 155: (0, 4, 32, 18, 41, 6, 20, 5, 16, 25, 76, 23, 74, 25, 3, 23, 2, 17, 53, 68, 11, 70, 16, 15, 8, 10, 10, 11, 35, 7, 2, 0)
s = 156: (0, 6, 31, 20, 27, 6, 25, 6, 19, 56, 36, 34, 38, 28, 4, 53, 3, 18, 50, 80, 16, 92, 9, 18, 11, 13, 16, 8, 27, 14, 3, 0)
s = 157: (0, 3, 48, 24, 47, 9, 17, 7, 14, 71, 43, 68, 38, 30, 2, 29, 4, 21, 65, 106, 14, 45, 21, 24, 9, 24, 18, 7, 35, 6, 3, 0)
s = 158: (0, 4, 51, 33, 43, 12, 14, 8, 15, 37, 53, 49, 62, 48, 3, 30, 2, 31, 33, 84, 25, 119, 13, 19, 9, 14, 12, 16, 33, 6, 2, 0)
s = 159: (0, 6, 52, 30, 50, 9, 20, 9, 19, 49, 80, 37, 63, 28, 2, 21, 2, 31, 67, 107, 17, 63, 15, 20, 16, 12, 15, 6, 23, 14, 2, 0)
s = 160: (0, 3, 50, 19, 41, 10, 19, 9, 22, 42, 62, 54, 34, 61, 2, 39, 2, 28, 53, 153, 20, 67, 14, 20, 16, 21, 13, 15, 35, 12, 2, 0)
s = 161: (0, 3, 61, 27, 39, 13, 21, 8, 9, 26, 93, 25, 51, 21, 2, 48, 2, 16, 54, 59, 22, 98, 18, 38, 7, 8, 24, 13, 25, 9, 3, 0)
s = 162: (0, 4, 49, 27, 34, 8, 14, 5, 18, 43, 70, 26, 56, 31, 2, 29, 2, 32, 32, 55, 19, 59, 19, 24, 9, 8, 14, 11, 26, 8, 3, 0)
s = 163: (0, 5, 51, 24, 45, 11, 20, 7, 22, 57, 51, 44, 42, 33, 2, 31, 2, 19, 53, 65, 23, 72, 13, 25, 9, 20, 16, 9, 19, 7, 2, 0)
s = 164: (0, 3, 46, 24, 63, 6, 15, 5, 20, 40, 97, 45, 32, 30, 3, 38, 2, 15, 43, 115, 26, 75, 12, 16, 8, 15, 18, 14, 23, 11, 2, 0)
s = 165: (0, 6, 54, 23, 78, 11, 22, 8, 20, 43, 44, 79, 51, 25, 3, 38, 3, 30, 74, 94, 18, 106, 12, 18, 13, 11, 13, 9, 26, 10, 3, 0)
s = 166: (0, 6, 24, 25, 33, 17, 27, 10, 24, 59, 93, 31, 53, 42, 2, 34, 3, 27, 52, 81, 22, 141, 18, 36, 8, 21, 16, 6, 28, 17, 3, 0)
s = 167: (0, 3, 28, 33, 55, 9, 19, 6, 15, 76, 51, 58, 62, 64, 2, 25, 4, 23, 53, 108, 29, 81, 18, 13, 12, 22, 10, 11, 27, 9, 3, 0)
s = 168: (0, 3, 28, 34, 69, 13, 26, 8, 17, 29, 67, 26, 47, 51, 3, 49, 3, 43, 45, 87, 11, 76, 20, 14, 10, 10, 12, 6, 29, 18, 2, 0)
s = 169: (0, 5, 27, 25, 93, 8, 18, 10, 27, 49, 47, 26, 68, 22, 2, 28, 3, 20, 54, 125, 17, 72, 20, 24, 6, 11, 20, 8, 35, 7, 2, 0)
s = 170: (0, 5, 30, 29, 31, 16, 15, 10, 18, 34, 59, 33, 55, 51, 2, 39, 3, 27, 51, 111, 12, 47, 13, 23, 11, 18, 15, 10, 27, 15, 3, 0)
s = 171: (0, 4, 26, 18, 51, 9, 27, 6, 19, 39, 36, 80, 54, 33, 3, 35, 3, 14, 49, 130, 14, 75, 23, 15, 14, 8, 13, 7, 27, 9, 2, 0)
s = 172: (0, 4, 47, 19, 45, 16, 20, 5, 23, 29, 46, 45, 51, 43, 2, 32, 4, 18, 36, 70, 12, 56, 16, 20, 11, 14, 21, 9, 30, 17, 3, 0)
s = 173: (0, 7, 45, 22, 44, 12, 17, 7, 10, 27, 61, 61, 47, 22, 3, 35, 3, 19, 47, 86, 15, 65, 18, 26, 7, 15, 14, 6, 31, 17, 2, 0)
s = 174: (0, 5, 39, 27, 40, 7, 11, 7, 20, 44, 49, 25, 39, 33, 3, 26, 4, 39, 43, 88, 24, 83, 26, 17, 10, 13, 15, 11, 23, 15, 2, 0)
s = 175: (0, 4, 54, 20, 51, 10, 12, 9, 18, 50, 99, 39, 72, 42, 3, 31, 2, 20, 44, 60, 10, 108, 17, 24, 11, 8, 15, 6, 31, 8, 3, 0)
s = 176: (0, 6, 43, 40, 55, 8, 19, 6, 11, 56, 46, 62, 56, 46, 4, 43, 3, 30, 48, 71, 11, 69, 19, 28, 15, 18, 14, 9, 26, 12, 2, 0)
s = 177: (0, 3, 32, 25, 48, 13, 17, 11, 13, 33, 44, 37, 61, 37, 2, 37, 3, 23, 35, 94, 25, 75, 21, 27, 9, 21, 10, 9, 26, 8, 2, 0)
s = 178: (0, 5, 55, 24, 63, 10, 25, 6, 19, 35, 75, 28, 58, 51, 3, 32, 3, 24, 49, 65, 10, 64, 19, 22, 9, 11, 14, 8, 32, 13, 3, 0)
s = 179: (0, 5, 34, 27, 44, 9, 18, 6, 13, 46, 80, 34, 58, 49, 4, 51, 2, 35, 61, 116, 9, 45, 21, 27, 6, 15, 14, 11, 34, 16, 2, 0)
s = 180: (0, 4, 50, 21, 66, 11, 12, 9, 17, 44, 39, 31, 36, 25, 3, 62, 2, 24, 37, 98, 21, 100, 13, 21, 9, 12, 11, 10, 36, 6, 2, 0)
s = 181: (0, 5, 24, 15, 53, 11, 18, 8, 15, 56, 70, 29, 48, 47, 2, 43, 3, 19, 46, 87, 11, 118, 15, 25, 9, 21, 22, 6, 34, 12, 3, 0)
s = 182: (0, 5, 54, 34, 45, 11, 26, 6, 17, 38, 76, 27, 55, 53, 3, 26, 3, 21, 38, 107, 12, 67, 13, 21, 10, 20, 12, 10, 33, 14, 3, 0)
s = 183: (0, 3, 36, 29, 58, 6, 17, 5, 20, 48, 85, 27, 58, 27, 3, 23, 2, 34, 32, 131, 14, 66, 10, 19, 7, 10, 10, 10, 27, 7, 2, 0)
s = 184: (0, 7, 23, 28, 45, 7, 17, 6, 18, 40, 55, 47, 108, 48, 2, 32, 3, 19, 58, 121, 13, 83, 11, 18, 14, 13, 17, 10, 55, 12, 2, 0)
s = 185: (0, 7, 36, 23, 31, 13, 15, 9, 27, 39, 37, 41, 79, 39, 4, 41, 2, 27, 33, 57, 21, 57, 15, 25, 7, 21, 18, 7, 19, 12, 3, 0)
s = 186: (0, 5, 38, 25, 54, 6, 12, 6, 26, 30, 56, 30, 90, 29, 3, 75, 3, 33, 45, 72, 12, 48, 16, 19, 11, 12, 13, 12, 34, 13, 3, 0)
s = 187: (0, 4, 29, 23, 60, 14, 18, 5, 15, 57, 73, 39, 48, 38, 2, 23, 3, 22, 50, 54, 22, 73, 16, 19, 8, 13, 12, 6, 28, 10, 2, 0)
s = 188: (0, 4, 55, 28, 30, 13, 15, 7, 12, 37, 48, 54, 64, 47, 3, 26, 2, 28, 32, 159, 16, 86, 18, 25, 10, 11, 17, 11, 23, 7, 3, 0)
s = 189: (0, 6, 41, 28, 39, 8, 23, 6, 22, 37, 55, 64, 57, 22, 3, 29, 4, 21, 53, 68, 14, 97, 9, 17, 8, 14, 10, 7, 33, 8, 2, 0)
s = 190: (0, 5, 55, 28, 43, 16, 22, 8, 15, 73, 75, 55, 64, 53, 4, 58, 3, 24, 64, 138, 17, 43, 14, 18, 13, 10, 27, 6, 33, 8, 2, 0)
s = 191: (0, 4, 29, 32, 51, 15, 13, 10, 10, 68, 58, 33, 94, 59, 2, 33, 2, 15, 54, 81, 15, 68, 13, 26, 15, 9, 23, 11, 26, 8, 3, 0)
s = 192: (0, 3, 24, 33, 41, 16, 16, 6, 16, 30, 53, 37, 75, 57, 2, 37, 2, 25, 50, 61, 15, 46, 14, 20, 16, 17, 18, 10, 33, 6, 2, 0)
s = 193: (0, 3, 31, 33, 41, 15, 20, 8, 15, 37, 43, 49, 52, 42, 2, 57, 3, 19, 58, 83, 12, 62, 12, 24, 12, 13, 15, 8, 21, 14, 2, 0)
s = 194: (0, 4, 30, 19, 67, 9, 13, 9, 20, 42, 82, 64, 86, 26, 2, 40, 3, 17, 31, 149, 27, 101, 20, 17, 9, 13, 10, 10, 23, 8, 3, 0)
s = 195: (0, 3, 39, 28, 42, 9, 18, 8, 26, 31, 32, 29, 51, 44, 2, 40, 2, 27, 30, 92, 17, 120, 12, 23, 13, 19, 10, 10, 52, 13, 2, 0)
s = 196: (0, 6, 50, 20, 37, 10, 32, 7, 20, 74, 77, 34, 54, 38, 2, 57, 3, 21, 59, 76, 23, 50, 19, 16, 12, 9, 23, 9, 21, 9, 3, 0)
s = 197: (0, 4, 36, 19, 41, 6, 11, 8, 13, 48, 68, 49, 44, 43, 3, 41, 3, 33, 51, 130, 15, 124, 17, 22, 12, 19, 21, 8, 34, 9, 3, 0)
s = 198: (0, 5, 32, 14, 66, 8, 12, 7, 10, 52, 42, 32, 49, 56, 2, 37, 3, 27, 33, 134, 21, 53, 19, 16, 7, 13, 18, 13, 35, 15, 2, 0)
s = 199: (0, 4, 45, 22, 62, 8, 19, 7, 31, 64, 47, 44, 69, 25, 3, 28, 2, 21, 38, 89, 12, 110, 15, 19, 9, 15, 15, 11, 21, 7, 2, 0)
s = 200: (0, 5, 59, 16, 70, 10, 10, 6, 13, 57, 61, 45, 65, 24, 2, 41, 2, 24, 35, 70, 17, 98, 11, 19, 7, 14, 11, 9, 49, 16, 3, 0)
************************************************************************
ES/LS-VALUES:
jobnr.   ES(i)    LS(i)
------------------------------------------------------------------------
  0        0        0
  1        0       94
  2        0       104
  3        0       66
  4        8       75
  5        2       96
  6        2       98
  7       16       121
  8       18       114
  9       23       91
 10       37       106
 11       12       127
 12       47       131
 13       37       115
 14       12       115
 15        2       106
 16       47       117
 17       18       117
 18       49       119
 19       23       123
 20       41       142
 21       61       132
 22       35       150
 23       48       127
 24       53       133
 25       59       139
 26       59       143
 27       79       151
 28       84       157
 29       72       157
 30       49       165
 31       93       167
************************************************************************
BIG-M-VALUES:
M1 = 37, M2 = 184
************************************************************************
